p cnf 149 776
72 104 0
54 57 68 0
29 31 0
60 82 92 0
85 120 0
38 73 75 0
64 71 76 80 0
21 83 0
90 96 0
66 100 129 0
138 142 0
84 91 0
45 47 0
41 48 0
49 126 0
36 40 0
28 30 34 0
26 27 0
24 65 78 0
20 22 23 56 0
17 18 19 53 67 0
13 15 16 52 87 95 98 0
88 99 102 105 0
58 106 108 0
55 109 110 0
62 79 111 0
25 93 113 114 0
115 116 117 0
86 118 119 122 0
43 46 50 123 124 127 0
70 74 81 0
14 97 0
89 101 128 0
59 69 130 131 132 0
33 35 133 135 0
136 137 139 140 143 0
63 112 144 0
94 145 0
42 146 147 0
-38 -51 0
-51 -71 0
-38 -71 0
-121 -126 0
-40 -121 0
-40 -126 0
-23 -53 0
-23 -52 0
-23 -55 0
-23 -25 0
-52 -53 0
-53 -55 0
-25 -53 0
-52 -55 0
-25 -52 0
-25 -55 0
-115 -118 0
-46 -115 0
-74 -115 0
-115 -128 0
-46 -118 0
-74 -118 0
-118 -128 0
-46 -74 0
-46 -128 0
-74 -128 0
-130 -133 0
-130 -136 0
-130 -149 0
-130 -146 0
-133 -136 0
-133 -149 0
-133 -146 0
-136 -149 0
-136 -146 0
-146 -149 0
-51 -121 0
-23 -51 0
-51 -115 0
-51 -130 0
-23 -121 0
-115 -121 0
-121 -130 0
-23 -115 0
-23 -130 0
-115 -130 0
-38 -126 0
-38 -53 0
-38 -118 0
-38 -133 0
-53 -126 0
-118 -126 0
-126 -133 0
-53 -118 0
-53 -133 0
-118 -133 0
-40 -71 0
-52 -71 0
-46 -71 0
-71 -136 0
-40 -52 0
-40 -46 0
-40 -136 0
-46 -52 0
-52 -136 0
-46 -136 0
-55 -74 0
-55 -149 0
-74 -149 0
-25 -128 0
-25 -146 0
-128 -146 0
-57 -103 0
-103 -141 0
-60 -103 0
-57 -141 0
-57 -60 0
-60 -141 0
-77 -91 0
-47 -77 0
-48 -77 0
-47 -91 0
-48 -91 0
-47 -48 0
-16 -19 0
-19 -106 0
-19 -109 0
-16 -106 0
-16 -109 0
-106 -109 0
-119 -123 0
-37 -119 0
-70 -119 0
-37 -123 0
-70 -123 0
-37 -70 0
-77 -103 0
-19 -103 0
-103 -119 0
-19 -77 0
-77 -119 0
-19 -119 0
-57 -91 0
-16 -57 0
-57 -123 0
-16 -91 0
-91 -123 0
-16 -123 0
-47 -141 0
-106 -141 0
-37 -141 0
-47 -106 0
-37 -47 0
-37 -106 0
-48 -60 0
-60 -109 0
-60 -70 0
-48 -109 0
-48 -70 0
-70 -109 0
-36 -49 0
-15 -18 0
-18 -88 0
-15 -88 0
-43 -86 0
-12 -86 0
-12 -43 0
-18 -49 0
-49 -86 0
-18 -86 0
-15 -36 0
-36 -43 0
-15 -43 0
-12 -88 0
-68 -72 0
-31 -72 0
-72 -92 0
-31 -68 0
-68 -92 0
-31 -92 0
-11 -76 0
-11 -21 0
-11 -100 0
-21 -76 0
-76 -100 0
-21 -100 0
-13 -22 0
-22 -99 0
-22 -110 0
-22 -113 0
-13 -99 0
-13 -110 0
-13 -113 0
-99 -110 0
-99 -113 0
-110 -113 0
-116 -124 0
-10 -116 0
-81 -116 0
-89 -116 0
-10 -124 0
-81 -124 0
-89 -124 0
-10 -81 0
-10 -89 0
-81 -89 0
-131 -137 0
-131 -144 0
-9 -131 0
-42 -131 0
-137 -144 0
-9 -137 0
-42 -137 0
-9 -144 0
-42 -144 0
-9 -42 0
-11 -72 0
-22 -72 0
-72 -116 0
-72 -131 0
-11 -22 0
-11 -116 0
-11 -131 0
-22 -116 0
-22 -131 0
-116 -131 0
-68 -76 0
-13 -68 0
-68 -124 0
-68 -137 0
-13 -76 0
-76 -124 0
-76 -137 0
-13 -124 0
-13 -137 0
-124 -137 0
-21 -31 0
-31 -99 0
-10 -31 0
-31 -144 0
-21 -99 0
-10 -21 0
-21 -144 0
-10 -99 0
-99 -144 0
-10 -144 0
-92 -100 0
-92 -110 0
-81 -92 0
-9 -92 0
-100 -110 0
-81 -100 0
-9 -100 0
-81 -110 0
-9 -110 0
-9 -81 0
-89 -113 0
-42 -113 0
-42 -89 0
-61 -120 0
-61 -125 0
-120 -125 0
-96 -134 0
-96 -138 0
-134 -138 0
-95 -111 0
-93 -95 0
-93 -111 0
-14 -50 0
-50 -101 0
-14 -101 0
-50 -95 0
-61 -96 0
-120 -134 0
-111 -120 0
-14 -120 0
-111 -134 0
-14 -134 0
-14 -111 0
-125 -138 0
-93 -125 0
-101 -125 0
-93 -138 0
-101 -138 0
-93 -101 0
-104 -107 0
-54 -104 0
-29 -104 0
-8 -104 0
-54 -107 0
-29 -107 0
-8 -107 0
-29 -54 0
-8 -54 0
-8 -29 0
-7 -73 0
-7 -64 0
-7 -83 0
-7 -90 0
-64 -73 0
-73 -83 0
-73 -90 0
-64 -83 0
-64 -90 0
-83 -90 0
-27 -34 0
-34 -65 0
-27 -65 0
-17 -56 0
-56 -98 0
-56 -102 0
-56 -58 0
-56 -62 0
-17 -98 0
-17 -102 0
-17 -58 0
-17 -62 0
-98 -102 0
-58 -98 0
-62 -98 0
-58 -102 0
-62 -102 0
-58 -62 0
-117 -122 0
-117 -127 0
-39 -117 0
-6 -117 0
-97 -117 0
-122 -127 0
-39 -122 0
-6 -122 0
-97 -122 0
-39 -127 0
-6 -127 0
-97 -127 0
-6 -39 0
-39 -97 0
-6 -97 0
-132 -135 0
-132 -139 0
-112 -132 0
-94 -132 0
-5 -132 0
-135 -139 0
-112 -135 0
-94 -135 0
-5 -135 0
-112 -139 0
-94 -139 0
-5 -139 0
-94 -112 0
-5 -112 0
-5 -94 0
-7 -104 0
-34 -104 0
-56 -104 0
-104 -117 0
-104 -132 0
-7 -34 0
-7 -56 0
-7 -117 0
-7 -132 0
-34 -56 0
-34 -117 0
-34 -132 0
-56 -117 0
-56 -132 0
-117 -132 0
-73 -107 0
-27 -107 0
-17 -107 0
-107 -122 0
-107 -135 0
-27 -73 0
-17 -73 0
-73 -122 0
-73 -135 0
-17 -27 0
-27 -122 0
-27 -135 0
-17 -122 0
-17 -135 0
-122 -135 0
-54 -64 0
-54 -65 0
-54 -98 0
-54 -127 0
-54 -139 0
-64 -65 0
-64 -98 0
-64 -127 0
-64 -139 0
-65 -98 0
-65 -127 0
-65 -139 0
-98 -127 0
-98 -139 0
-127 -139 0
-29 -83 0
-29 -102 0
-29 -39 0
-29 -112 0
-83 -102 0
-39 -83 0
-83 -112 0
-39 -102 0
-102 -112 0
-39 -112 0
-8 -90 0
-8 -58 0
-6 -8 0
-8 -94 0
-58 -90 0
-6 -90 0
-90 -94 0
-6 -58 0
-58 -94 0
-6 -94 0
-62 -97 0
-5 -62 0
-5 -97 0
-4 -45 0
-30 -78 0
-20 -87 0
-20 -105 0
-20 -108 0
-87 -105 0
-87 -108 0
-105 -108 0
-59 -140 0
-59 -63 0
-59 -145 0
-63 -140 0
-140 -145 0
-63 -145 0
-20 -30 0
-30 -59 0
-20 -59 0
-78 -87 0
-78 -140 0
-87 -140 0
-4 -105 0
-4 -63 0
-63 -105 0
-45 -108 0
-45 -145 0
-108 -145 0
-82 -85 0
-3 -82 0
-3 -85 0
-32 -66 0
-66 -142 0
-32 -142 0
-67 -79 0
-67 -114 0
-79 -114 0
-35 -44 0
-35 -147 0
-44 -147 0
-35 -67 0
-66 -82 0
-32 -85 0
-79 -85 0
-44 -85 0
-32 -79 0
-32 -44 0
-44 -79 0
-3 -142 0
-3 -114 0
-3 -147 0
-114 -142 0
-142 -147 0
-114 -147 0
-2 -75 0
-2 -80 0
-2 -129 0
-75 -80 0
-75 -129 0
-80 -129 0
-1 -148 0
-1 -84 0
-1 -41 0
-84 -148 0
-41 -148 0
-41 -84 0
-26 -28 0
-24 -28 0
-24 -26 0
-33 -69 0
-69 -143 0
-33 -143 0
-1 -2 0
-2 -28 0
-2 -69 0
-1 -28 0
-1 -69 0
-28 -69 0
-75 -148 0
-26 -75 0
-33 -75 0
-26 -148 0
-33 -148 0
-26 -33 0
-80 -84 0
-24 -80 0
-80 -143 0
-24 -84 0
-84 -143 0
-24 -143 0
-41 -129 0
-38 -51 0
-51 -71 0
-38 -71 0
-57 -103 0
-77 -103 0
-91 -103 0
-57 -77 0
-57 -91 0
-77 -91 0
-68 -72 0
-11 -72 0
-72 -76 0
-11 -68 0
-68 -76 0
-11 -76 0
-104 -107 0
-54 -104 0
-7 -104 0
-73 -104 0
-64 -104 0
-54 -107 0
-7 -107 0
-73 -107 0
-64 -107 0
-7 -54 0
-54 -73 0
-54 -64 0
-7 -73 0
-7 -64 0
-64 -73 0
-2 -75 0
-2 -80 0
-1 -2 0
-2 -148 0
-2 -84 0
-75 -80 0
-1 -75 0
-75 -148 0
-75 -84 0
-1 -80 0
-80 -148 0
-80 -84 0
-1 -148 0
-1 -84 0
-84 -148 0
-60 -141 0
-47 -141 0
-48 -141 0
-47 -60 0
-48 -60 0
-47 -48 0
-31 -92 0
-21 -31 0
-31 -100 0
-21 -92 0
-92 -100 0
-21 -100 0
-61 -96 0
-8 -29 0
-29 -83 0
-29 -90 0
-8 -83 0
-8 -90 0
-83 -90 0
-4 -45 0
-66 -82 0
-41 -129 0
-120 -125 0
-120 -134 0
-120 -138 0
-125 -134 0
-125 -138 0
-134 -138 0
-3 -85 0
-32 -85 0
-85 -142 0
-3 -32 0
-3 -142 0
-32 -142 0
-121 -126 0
-40 -121 0
-40 -126 0
-36 -49 0
-27 -34 0
-34 -65 0
-27 -65 0
-30 -78 0
-26 -28 0
-24 -28 0
-24 -26 0
-23 -53 0
-23 -52 0
-23 -115 0
-23 -118 0
-23 -46 0
-23 -130 0
-23 -133 0
-23 -136 0
-52 -53 0
-53 -115 0
-53 -118 0
-46 -53 0
-53 -130 0
-53 -133 0
-53 -136 0
-52 -115 0
-52 -118 0
-46 -52 0
-52 -130 0
-52 -133 0
-52 -136 0
-115 -118 0
-46 -115 0
-115 -130 0
-115 -133 0
-115 -136 0
-46 -118 0
-118 -130 0
-118 -133 0
-118 -136 0
-46 -130 0
-46 -133 0
-46 -136 0
-130 -133 0
-130 -136 0
-133 -136 0
-16 -19 0
-19 -119 0
-19 -123 0
-16 -119 0
-16 -123 0
-119 -123 0
-15 -18 0
-18 -86 0
-18 -43 0
-15 -86 0
-15 -43 0
-43 -86 0
-13 -22 0
-22 -116 0
-22 -124 0
-22 -131 0
-22 -137 0
-13 -116 0
-13 -124 0
-13 -131 0
-13 -137 0
-116 -124 0
-116 -131 0
-116 -137 0
-124 -131 0
-124 -137 0
-131 -137 0
-50 -95 0
-17 -56 0
-56 -98 0
-56 -117 0
-56 -122 0
-56 -127 0
-56 -132 0
-56 -135 0
-56 -139 0
-17 -98 0
-17 -117 0
-17 -122 0
-17 -127 0
-17 -132 0
-17 -135 0
-17 -139 0
-98 -117 0
-98 -122 0
-98 -127 0
-98 -132 0
-98 -135 0
-98 -139 0
-117 -122 0
-117 -127 0
-117 -132 0
-117 -135 0
-117 -139 0
-122 -127 0
-122 -132 0
-122 -135 0
-122 -139 0
-127 -132 0
-127 -135 0
-127 -139 0
-132 -135 0
-132 -139 0
-135 -139 0
-20 -87 0
-20 -59 0
-20 -140 0
-59 -87 0
-87 -140 0
-59 -140 0
-35 -67 0
-33 -69 0
-69 -143 0
-33 -143 0
-55 -74 0
-55 -149 0
-74 -149 0
-106 -109 0
-37 -106 0
-70 -106 0
-37 -109 0
-70 -109 0
-37 -70 0
-12 -88 0
-99 -110 0
-10 -99 0
-81 -99 0
-99 -144 0
-9 -99 0
-10 -110 0
-81 -110 0
-110 -144 0
-9 -110 0
-10 -81 0
-10 -144 0
-9 -10 0
-81 -144 0
-9 -81 0
-9 -144 0
-58 -102 0
-39 -102 0
-6 -102 0
-102 -112 0
-94 -102 0
-39 -58 0
-6 -58 0
-58 -112 0
-58 -94 0
-6 -39 0
-39 -112 0
-39 -94 0
-6 -112 0
-6 -94 0
-94 -112 0
-105 -108 0
-63 -105 0
-105 -145 0
-63 -108 0
-108 -145 0
-63 -145 0
-25 -128 0
-25 -146 0
-128 -146 0
-89 -113 0
-42 -113 0
-42 -89 0
-93 -111 0
-14 -111 0
-101 -111 0
-14 -93 0
-93 -101 0
-14 -101 0
-62 -97 0
-5 -62 0
-5 -97 0
-79 -114 0
-44 -79 0
-79 -147 0
-44 -114 0
-114 -147 0
-44 -147 0
